(set-logic QF_LRA)
(declare-fun T1 () Real )
(declare-fun T2 () Real )
(declare-fun T3 () Real )
(declare-fun T4 () Real )
(declare-fun T5 () Real )
(declare-fun T6 () Real )
(declare-fun T7 () Real )
(declare-fun T8 () Real )
(declare-fun Z () Real )
(assert ( and 
(or ( <= ( + T1 41 ) T2 ) ( <= ( + T2 63 ) T1 ) )
(or ( <= ( + T1 53 )  ( + T2 63 ) ) ( <= ( + T2 82 )( + T1 41 ) ) )
(or ( <= ( + T1 143 )  ( + T2 82 ) ) ( <= ( + T2 88 )( + T1 53 ) ) )
(or ( <= ( + T1 148 )  ( + T2 88 ) ) ( <= ( + T2 114 )( + T1 143 ) ) )
(or ( <= ( + T1 191 )  ( + T2 114 ) ) ( <= ( + T2 193 )( + T1 148 ) ) )
(or ( <= ( + T1 281 )  ( + T2 193 ) ) ( <= ( + T2 221 )( + T1 191 ) ) )
(or ( <= ( + T1 41 ) T3 ) ( <= ( + T3 50 ) T1 ) )
(or ( <= ( + T1 53 )  ( + T3 50 ) ) ( <= ( + T3 71 )( + T1 41 ) ) )
(or ( <= ( + T1 143 )  ( + T3 71 ) ) ( <= ( + T3 102 )( + T1 53 ) ) )
(or ( <= ( + T1 148 )  ( + T3 102 ) ) ( <= ( + T3 106 )( + T1 143 ) ) )
(or ( <= ( + T1 191 )  ( + T3 106 ) ) ( <= ( + T3 202 )( + T1 148 ) ) )
(or ( <= ( + T1 281 )  ( + T3 202 ) ) ( <= ( + T3 289 )( + T1 191 ) ) )
(or ( <= ( + T1 41 ) T4 ) ( <= ( + T4 63 ) T1 ) )
(or ( <= ( + T1 53 )  ( + T4 63 ) ) ( <= ( + T4 127 )( + T1 41 ) ) )
(or ( <= ( + T1 143 )  ( + T4 127 ) ) ( <= ( + T4 157 )( + T1 53 ) ) )
(or ( <= ( + T1 148 )  ( + T4 157 ) ) ( <= ( + T4 252 )( + T1 143 ) ) )
(or ( <= ( + T1 191 )  ( + T4 252 ) ) ( <= ( + T4 318 )( + T1 148 ) ) )
(or ( <= ( + T1 281 )  ( + T4 318 ) ) ( <= ( + T4 339 )( + T1 191 ) ) )
(or ( <= ( + T1 41 ) T5 ) ( <= ( + T5 46 ) T1 ) )
(or ( <= ( + T1 53 )  ( + T5 46 ) ) ( <= ( + T5 59 )( + T1 41 ) ) )
(or ( <= ( + T1 143 )  ( + T5 59 ) ) ( <= ( + T5 98 )( + T1 53 ) ) )
(or ( <= ( + T1 148 )  ( + T5 98 ) ) ( <= ( + T5 108 )( + T1 143 ) ) )
(or ( <= ( + T1 191 )  ( + T5 108 ) ) ( <= ( + T5 141 )( + T1 148 ) ) )
(or ( <= ( + T1 281 )  ( + T5 141 ) ) ( <= ( + T5 152 )( + T1 191 ) ) )
(or ( <= ( + T1 41 ) T6 ) ( <= ( + T6 73 ) T1 ) )
(or ( <= ( + T1 53 )  ( + T6 73 ) ) ( <= ( + T6 99 )( + T1 41 ) ) )
(or ( <= ( + T1 143 )  ( + T6 99 ) ) ( <= ( + T6 121 )( + T1 53 ) ) )
(or ( <= ( + T1 148 )  ( + T6 121 ) ) ( <= ( + T6 184 )( + T1 143 ) ) )
(or ( <= ( + T1 191 )  ( + T6 184 ) ) ( <= ( + T6 214 )( + T1 148 ) ) )
(or ( <= ( + T1 281 )  ( + T6 214 ) ) ( <= ( + T6 230 )( + T1 191 ) ) )
(or ( <= ( + T1 41 ) T7 ) ( <= ( + T7 4 ) T1 ) )
(or ( <= ( + T1 53 )  ( + T7 4 ) ) ( <= ( + T7 48 )( + T1 41 ) ) )
(or ( <= ( + T1 143 )  ( + T7 48 ) ) ( <= ( + T7 83 )( + T1 53 ) ) )
(or ( <= ( + T1 148 )  ( + T7 83 ) ) ( <= ( + T7 92 )( + T1 143 ) ) )
(or ( <= ( + T1 191 )  ( + T7 92 ) ) ( <= ( + T7 113 )( + T1 148 ) ) )
(or ( <= ( + T1 281 )  ( + T7 113 ) ) ( <= ( + T7 126 )( + T1 191 ) ) )
(or ( <= ( + T1 41 ) T8 ) ( <= ( + T8 89 ) T1 ) )
(or ( <= ( + T1 53 )  ( + T8 89 ) ) ( <= ( + T8 160 )( + T1 41 ) ) )
(or ( <= ( + T1 143 )  ( + T8 160 ) ) ( <= ( + T8 194 )( + T1 53 ) ) )
(or ( <= ( + T1 148 )  ( + T8 194 ) ) ( <= ( + T8 213 )( + T1 143 ) ) )
(or ( <= ( + T1 191 )  ( + T8 213 ) ) ( <= ( + T8 239 )( + T1 148 ) ) )
(or ( <= ( + T1 281 )  ( + T8 239 ) ) ( <= ( + T8 268 )( + T1 191 ) ) )
(or ( <= ( + T2 63 ) T3 ) ( <= ( + T3 50 ) T2 ) )
(or ( <= ( + T2 82 )  ( + T3 50 ) ) ( <= ( + T3 71 )( + T2 63 ) ) )
(or ( <= ( + T2 88 )  ( + T3 71 ) ) ( <= ( + T3 102 )( + T2 82 ) ) )
(or ( <= ( + T2 114 )  ( + T3 102 ) ) ( <= ( + T3 106 )( + T2 88 ) ) )
(or ( <= ( + T2 193 )  ( + T3 106 ) ) ( <= ( + T3 202 )( + T2 114 ) ) )
(or ( <= ( + T2 221 )  ( + T3 202 ) ) ( <= ( + T3 289 )( + T2 193 ) ) )
(or ( <= ( + T2 63 ) T4 ) ( <= ( + T4 63 ) T2 ) )
(or ( <= ( + T2 82 )  ( + T4 63 ) ) ( <= ( + T4 127 )( + T2 63 ) ) )
(or ( <= ( + T2 88 )  ( + T4 127 ) ) ( <= ( + T4 157 )( + T2 82 ) ) )
(or ( <= ( + T2 114 )  ( + T4 157 ) ) ( <= ( + T4 252 )( + T2 88 ) ) )
(or ( <= ( + T2 193 )  ( + T4 252 ) ) ( <= ( + T4 318 )( + T2 114 ) ) )
(or ( <= ( + T2 221 )  ( + T4 318 ) ) ( <= ( + T4 339 )( + T2 193 ) ) )
(or ( <= ( + T2 63 ) T5 ) ( <= ( + T5 46 ) T2 ) )
(or ( <= ( + T2 82 )  ( + T5 46 ) ) ( <= ( + T5 59 )( + T2 63 ) ) )
(or ( <= ( + T2 88 )  ( + T5 59 ) ) ( <= ( + T5 98 )( + T2 82 ) ) )
(or ( <= ( + T2 114 )  ( + T5 98 ) ) ( <= ( + T5 108 )( + T2 88 ) ) )
(or ( <= ( + T2 193 )  ( + T5 108 ) ) ( <= ( + T5 141 )( + T2 114 ) ) )
(or ( <= ( + T2 221 )  ( + T5 141 ) ) ( <= ( + T5 152 )( + T2 193 ) ) )
(or ( <= ( + T2 63 ) T6 ) ( <= ( + T6 73 ) T2 ) )
(or ( <= ( + T2 82 )  ( + T6 73 ) ) ( <= ( + T6 99 )( + T2 63 ) ) )
(or ( <= ( + T2 88 )  ( + T6 99 ) ) ( <= ( + T6 121 )( + T2 82 ) ) )
(or ( <= ( + T2 114 )  ( + T6 121 ) ) ( <= ( + T6 184 )( + T2 88 ) ) )
(or ( <= ( + T2 193 )  ( + T6 184 ) ) ( <= ( + T6 214 )( + T2 114 ) ) )
(or ( <= ( + T2 221 )  ( + T6 214 ) ) ( <= ( + T6 230 )( + T2 193 ) ) )
(or ( <= ( + T2 63 ) T7 ) ( <= ( + T7 4 ) T2 ) )
(or ( <= ( + T2 82 )  ( + T7 4 ) ) ( <= ( + T7 48 )( + T2 63 ) ) )
(or ( <= ( + T2 88 )  ( + T7 48 ) ) ( <= ( + T7 83 )( + T2 82 ) ) )
(or ( <= ( + T2 114 )  ( + T7 83 ) ) ( <= ( + T7 92 )( + T2 88 ) ) )
(or ( <= ( + T2 193 )  ( + T7 92 ) ) ( <= ( + T7 113 )( + T2 114 ) ) )
(or ( <= ( + T2 221 )  ( + T7 113 ) ) ( <= ( + T7 126 )( + T2 193 ) ) )
(or ( <= ( + T2 63 ) T8 ) ( <= ( + T8 89 ) T2 ) )
(or ( <= ( + T2 82 )  ( + T8 89 ) ) ( <= ( + T8 160 )( + T2 63 ) ) )
(or ( <= ( + T2 88 )  ( + T8 160 ) ) ( <= ( + T8 194 )( + T2 82 ) ) )
(or ( <= ( + T2 114 )  ( + T8 194 ) ) ( <= ( + T8 213 )( + T2 88 ) ) )
(or ( <= ( + T2 193 )  ( + T8 213 ) ) ( <= ( + T8 239 )( + T2 114 ) ) )
(or ( <= ( + T2 221 )  ( + T8 239 ) ) ( <= ( + T8 268 )( + T2 193 ) ) )
(or ( <= ( + T3 50 ) T4 ) ( <= ( + T4 63 ) T3 ) )
(or ( <= ( + T3 71 )  ( + T4 63 ) ) ( <= ( + T4 127 )( + T3 50 ) ) )
(or ( <= ( + T3 102 )  ( + T4 127 ) ) ( <= ( + T4 157 )( + T3 71 ) ) )
(or ( <= ( + T3 106 )  ( + T4 157 ) ) ( <= ( + T4 252 )( + T3 102 ) ) )
(or ( <= ( + T3 202 )  ( + T4 252 ) ) ( <= ( + T4 318 )( + T3 106 ) ) )
(or ( <= ( + T3 289 )  ( + T4 318 ) ) ( <= ( + T4 339 )( + T3 202 ) ) )
(or ( <= ( + T3 50 ) T5 ) ( <= ( + T5 46 ) T3 ) )
(or ( <= ( + T3 71 )  ( + T5 46 ) ) ( <= ( + T5 59 )( + T3 50 ) ) )
(or ( <= ( + T3 102 )  ( + T5 59 ) ) ( <= ( + T5 98 )( + T3 71 ) ) )
(or ( <= ( + T3 106 )  ( + T5 98 ) ) ( <= ( + T5 108 )( + T3 102 ) ) )
(or ( <= ( + T3 202 )  ( + T5 108 ) ) ( <= ( + T5 141 )( + T3 106 ) ) )
(or ( <= ( + T3 289 )  ( + T5 141 ) ) ( <= ( + T5 152 )( + T3 202 ) ) )
(or ( <= ( + T3 50 ) T6 ) ( <= ( + T6 73 ) T3 ) )
(or ( <= ( + T3 71 )  ( + T6 73 ) ) ( <= ( + T6 99 )( + T3 50 ) ) )
(or ( <= ( + T3 102 )  ( + T6 99 ) ) ( <= ( + T6 121 )( + T3 71 ) ) )
(or ( <= ( + T3 106 )  ( + T6 121 ) ) ( <= ( + T6 184 )( + T3 102 ) ) )
(or ( <= ( + T3 202 )  ( + T6 184 ) ) ( <= ( + T6 214 )( + T3 106 ) ) )
(or ( <= ( + T3 289 )  ( + T6 214 ) ) ( <= ( + T6 230 )( + T3 202 ) ) )
(or ( <= ( + T3 50 ) T7 ) ( <= ( + T7 4 ) T3 ) )
(or ( <= ( + T3 71 )  ( + T7 4 ) ) ( <= ( + T7 48 )( + T3 50 ) ) )
(or ( <= ( + T3 102 )  ( + T7 48 ) ) ( <= ( + T7 83 )( + T3 71 ) ) )
(or ( <= ( + T3 106 )  ( + T7 83 ) ) ( <= ( + T7 92 )( + T3 102 ) ) )
(or ( <= ( + T3 202 )  ( + T7 92 ) ) ( <= ( + T7 113 )( + T3 106 ) ) )
(or ( <= ( + T3 289 )  ( + T7 113 ) ) ( <= ( + T7 126 )( + T3 202 ) ) )
(or ( <= ( + T3 50 ) T8 ) ( <= ( + T8 89 ) T3 ) )
(or ( <= ( + T3 71 )  ( + T8 89 ) ) ( <= ( + T8 160 )( + T3 50 ) ) )
(or ( <= ( + T3 102 )  ( + T8 160 ) ) ( <= ( + T8 194 )( + T3 71 ) ) )
(or ( <= ( + T3 106 )  ( + T8 194 ) ) ( <= ( + T8 213 )( + T3 102 ) ) )
(or ( <= ( + T3 202 )  ( + T8 213 ) ) ( <= ( + T8 239 )( + T3 106 ) ) )
(or ( <= ( + T3 289 )  ( + T8 239 ) ) ( <= ( + T8 268 )( + T3 202 ) ) )
(or ( <= ( + T4 63 ) T5 ) ( <= ( + T5 46 ) T4 ) )
(or ( <= ( + T4 127 )  ( + T5 46 ) ) ( <= ( + T5 59 )( + T4 63 ) ) )
(or ( <= ( + T4 157 )  ( + T5 59 ) ) ( <= ( + T5 98 )( + T4 127 ) ) )
(or ( <= ( + T4 252 )  ( + T5 98 ) ) ( <= ( + T5 108 )( + T4 157 ) ) )
(or ( <= ( + T4 318 )  ( + T5 108 ) ) ( <= ( + T5 141 )( + T4 252 ) ) )
(or ( <= ( + T4 339 )  ( + T5 141 ) ) ( <= ( + T5 152 )( + T4 318 ) ) )
(or ( <= ( + T4 63 ) T6 ) ( <= ( + T6 73 ) T4 ) )
(or ( <= ( + T4 127 )  ( + T6 73 ) ) ( <= ( + T6 99 )( + T4 63 ) ) )
(or ( <= ( + T4 157 )  ( + T6 99 ) ) ( <= ( + T6 121 )( + T4 127 ) ) )
(or ( <= ( + T4 252 )  ( + T6 121 ) ) ( <= ( + T6 184 )( + T4 157 ) ) )
(or ( <= ( + T4 318 )  ( + T6 184 ) ) ( <= ( + T6 214 )( + T4 252 ) ) )
(or ( <= ( + T4 339 )  ( + T6 214 ) ) ( <= ( + T6 230 )( + T4 318 ) ) )
(or ( <= ( + T4 63 ) T7 ) ( <= ( + T7 4 ) T4 ) )
(or ( <= ( + T4 127 )  ( + T7 4 ) ) ( <= ( + T7 48 )( + T4 63 ) ) )
(or ( <= ( + T4 157 )  ( + T7 48 ) ) ( <= ( + T7 83 )( + T4 127 ) ) )
(or ( <= ( + T4 252 )  ( + T7 83 ) ) ( <= ( + T7 92 )( + T4 157 ) ) )
(or ( <= ( + T4 318 )  ( + T7 92 ) ) ( <= ( + T7 113 )( + T4 252 ) ) )
(or ( <= ( + T4 339 )  ( + T7 113 ) ) ( <= ( + T7 126 )( + T4 318 ) ) )
(or ( <= ( + T4 63 ) T8 ) ( <= ( + T8 89 ) T4 ) )
(or ( <= ( + T4 127 )  ( + T8 89 ) ) ( <= ( + T8 160 )( + T4 63 ) ) )
(or ( <= ( + T4 157 )  ( + T8 160 ) ) ( <= ( + T8 194 )( + T4 127 ) ) )
(or ( <= ( + T4 252 )  ( + T8 194 ) ) ( <= ( + T8 213 )( + T4 157 ) ) )
(or ( <= ( + T4 318 )  ( + T8 213 ) ) ( <= ( + T8 239 )( + T4 252 ) ) )
(or ( <= ( + T4 339 )  ( + T8 239 ) ) ( <= ( + T8 268 )( + T4 318 ) ) )
(or ( <= ( + T5 46 ) T6 ) ( <= ( + T6 73 ) T5 ) )
(or ( <= ( + T5 59 )  ( + T6 73 ) ) ( <= ( + T6 99 )( + T5 46 ) ) )
(or ( <= ( + T5 98 )  ( + T6 99 ) ) ( <= ( + T6 121 )( + T5 59 ) ) )
(or ( <= ( + T5 108 )  ( + T6 121 ) ) ( <= ( + T6 184 )( + T5 98 ) ) )
(or ( <= ( + T5 141 )  ( + T6 184 ) ) ( <= ( + T6 214 )( + T5 108 ) ) )
(or ( <= ( + T5 152 )  ( + T6 214 ) ) ( <= ( + T6 230 )( + T5 141 ) ) )
(or ( <= ( + T5 46 ) T7 ) ( <= ( + T7 4 ) T5 ) )
(or ( <= ( + T5 59 )  ( + T7 4 ) ) ( <= ( + T7 48 )( + T5 46 ) ) )
(or ( <= ( + T5 98 )  ( + T7 48 ) ) ( <= ( + T7 83 )( + T5 59 ) ) )
(or ( <= ( + T5 108 )  ( + T7 83 ) ) ( <= ( + T7 92 )( + T5 98 ) ) )
(or ( <= ( + T5 141 )  ( + T7 92 ) ) ( <= ( + T7 113 )( + T5 108 ) ) )
(or ( <= ( + T5 152 )  ( + T7 113 ) ) ( <= ( + T7 126 )( + T5 141 ) ) )
(or ( <= ( + T5 46 ) T8 ) ( <= ( + T8 89 ) T5 ) )
(or ( <= ( + T5 59 )  ( + T8 89 ) ) ( <= ( + T8 160 )( + T5 46 ) ) )
(or ( <= ( + T5 98 )  ( + T8 160 ) ) ( <= ( + T8 194 )( + T5 59 ) ) )
(or ( <= ( + T5 108 )  ( + T8 194 ) ) ( <= ( + T8 213 )( + T5 98 ) ) )
(or ( <= ( + T5 141 )  ( + T8 213 ) ) ( <= ( + T8 239 )( + T5 108 ) ) )
(or ( <= ( + T5 152 )  ( + T8 239 ) ) ( <= ( + T8 268 )( + T5 141 ) ) )
(or ( <= ( + T6 73 ) T7 ) ( <= ( + T7 4 ) T6 ) )
(or ( <= ( + T6 99 )  ( + T7 4 ) ) ( <= ( + T7 48 )( + T6 73 ) ) )
(or ( <= ( + T6 121 )  ( + T7 48 ) ) ( <= ( + T7 83 )( + T6 99 ) ) )
(or ( <= ( + T6 184 )  ( + T7 83 ) ) ( <= ( + T7 92 )( + T6 121 ) ) )
(or ( <= ( + T6 214 )  ( + T7 92 ) ) ( <= ( + T7 113 )( + T6 184 ) ) )
(or ( <= ( + T6 230 )  ( + T7 113 ) ) ( <= ( + T7 126 )( + T6 214 ) ) )
(or ( <= ( + T6 73 ) T8 ) ( <= ( + T8 89 ) T6 ) )
(or ( <= ( + T6 99 )  ( + T8 89 ) ) ( <= ( + T8 160 )( + T6 73 ) ) )
(or ( <= ( + T6 121 )  ( + T8 160 ) ) ( <= ( + T8 194 )( + T6 99 ) ) )
(or ( <= ( + T6 184 )  ( + T8 194 ) ) ( <= ( + T8 213 )( + T6 121 ) ) )
(or ( <= ( + T6 214 )  ( + T8 213 ) ) ( <= ( + T8 239 )( + T6 184 ) ) )
(or ( <= ( + T6 230 )  ( + T8 239 ) ) ( <= ( + T8 268 )( + T6 214 ) ) )
(or ( <= ( + T7 4 ) T8 ) ( <= ( + T8 89 ) T7 ) )
(or ( <= ( + T7 48 )  ( + T8 89 ) ) ( <= ( + T8 160 )( + T7 4 ) ) )
(or ( <= ( + T7 83 )  ( + T8 160 ) ) ( <= ( + T8 194 )( + T7 48 ) ) )
(or ( <= ( + T7 92 )  ( + T8 194 ) ) ( <= ( + T8 213 )( + T7 83 ) ) )
(or ( <= ( + T7 113 )  ( + T8 213 ) ) ( <= ( + T8 239 )( + T7 92 ) ) )
(or ( <= ( + T7 126 )  ( + T8 239 ) ) ( <= ( + T8 268 )( + T7 113 ) ) )
( <= ( + T1 281 ) Z)
( <= ( + T2 221 ) Z)
( <= ( + T3 289 ) Z)
( <= ( + T4 339 ) Z)
( <= ( + T5 152 ) Z)
( <= ( + T6 230 ) Z)
( <= ( + T7 126 ) Z)
( <= ( + T8 268 ) Z)
( >= T1 0 )
( >= T2 0 )
( >= T3 0 )
( >= T4 0 )
( >= T5 0 )
( >= T6 0 )
( >= T7 0 )
( >= T8 0 )
) )
(minimize Z)
(check-sat)